p cnf 296 216
c p distribution  0.875 0.125
c p distribution  0.875 0.125
c p distribution  0.875 0.125
c p distribution  0.875 0.125
c p distribution  0.875 0.125
c p distribution  0.875 0.125
c p distribution  0.875 0.125
c p distribution  0.875 0.125
c p distribution  0.875 0.125
c p distribution  0.875 0.125
c p distribution  0.875 0.125
c p distribution  0.875 0.125
c p distribution  0.875 0.125
c p distribution  0.875 0.125
c p distribution  0.875 0.125
c p distribution  0.875 0.125
c p distribution  0.875 0.125
c p distribution  0.875 0.125
c p distribution  0.875 0.125
c p distribution  0.875 0.125
c p distribution  0.875 0.125
c p distribution  0.875 0.125
c p distribution  0.875 0.125
c p distribution  0.875 0.125
c p distribution  0.875 0.125
c p distribution  0.875 0.125
c p distribution  0.875 0.125
c p distribution  0.875 0.125
c p distribution  0.875 0.125
c p distribution  0.875 0.125
c p distribution  0.875 0.125
c p distribution  0.875 0.125
c p distribution  0.875 0.125
c p distribution  0.875 0.125
c p distribution  0.875 0.125
c p distribution  0.875 0.125
c p distribution  0.875 0.125
c p distribution  0.875 0.125
c p distribution  0.875 0.125
c p distribution  0.875 0.125
c p distribution  0.875 0.125
c p distribution  0.875 0.125
c p distribution  0.875 0.125
c p distribution  0.875 0.125
c p distribution  0.875 0.125
c p distribution  0.875 0.125
c p distribution  0.875 0.125
c p distribution  0.875 0.125
c p distribution  0.875 0.125
c p distribution  0.875 0.125
c p distribution  0.875 0.125
c p distribution  0.875 0.125
c p distribution  0.875 0.125
c p distribution  0.875 0.125
c p distribution  0.875 0.125
c p distribution  0.875 0.125
c p distribution  0.875 0.125
c p distribution  0.875 0.125
c p distribution  0.875 0.125
c p distribution  0.875 0.125
c p distribution  0.875 0.125
c p distribution  0.875 0.125
c p distribution  0.875 0.125
c p distribution  0.875 0.125
c p distribution  0.875 0.125
c p distribution  0.875 0.125
c p distribution  0.875 0.125
c p distribution  0.875 0.125
c p distribution  0.875 0.125
c p distribution  0.875 0.125
c p distribution  0.875 0.125
c p distribution  0.875 0.125
c p distribution  0.875 0.125
c p distribution  0.875 0.125
c p distribution  0.875 0.125
c p distribution  0.875 0.125
c p distribution  0.875 0.125
c p distribution  0.875 0.125
c p distribution  0.875 0.125
c p distribution  0.875 0.125
c p distribution  0.875 0.125
c p distribution  0.875 0.125
c p distribution  0.875 0.125
c p distribution  0.875 0.125
c p distribution  0.875 0.125
c p distribution  0.875 0.125
c p distribution  0.875 0.125
c p distribution  0.875 0.125
c p distribution  0.875 0.125
c p distribution  0.875 0.125
c p distribution  0.875 0.125
c p distribution  0.875 0.125
c p distribution  0.875 0.125
c p distribution  0.875 0.125
c p distribution  0.875 0.125
c p distribution  0.875 0.125
c p distribution  0.875 0.125
c p distribution  0.875 0.125
c p distribution  0.875 0.125
c p distribution  0.875 0.125
c p distribution  0.875 0.125
c p distribution  0.875 0.125
c p distribution  0.875 0.125
c p distribution  0.875 0.125
c p distribution  0.875 0.125
c p distribution  0.875 0.125
c p distribution  0.875 0.125
278 0
-275 0
251 -264 -1 0
264 -251 -1 0
283 -228 -3 0
228 -283 -3 0
230 -231 -5 0
231 -230 -5 0
225 -281 -7 0
281 -225 -7 0
244 -224 -9 0
224 -244 -9 0
255 -224 -11 0
224 -255 -11 0
240 -215 -13 0
215 -240 -13 0
280 -215 -15 0
215 -280 -15 0
248 -295 -17 0
295 -248 -17 0
252 -225 -19 0
225 -252 -19 0
277 -279 -21 0
279 -277 -21 0
245 -223 -23 0
223 -245 -23 0
256 -264 -25 0
264 -256 -25 0
223 -294 -27 0
294 -223 -27 0
240 -273 -29 0
273 -240 -29 0
222 -274 -31 0
274 -222 -31 0
249 -292 -33 0
292 -249 -33 0
229 -240 -35 0
240 -229 -35 0
288 -295 -37 0
295 -288 -37 0
284 -251 -39 0
251 -284 -39 0
270 -246 -41 0
246 -270 -41 0
216 -294 -43 0
294 -216 -43 0
222 -273 -45 0
273 -222 -45 0
289 -253 -47 0
253 -289 -47 0
216 -293 -49 0
293 -216 -49 0
239 -233 -51 0
233 -239 -51 0
261 -263 -53 0
263 -261 -53 0
267 -232 -55 0
232 -267 -55 0
275 -286 -57 0
286 -275 -57 0
226 -247 -59 0
247 -226 -59 0
238 -228 -61 0
228 -238 -61 0
254 -239 -63 0
239 -254 -63 0
283 -238 -65 0
238 -283 -65 0
265 -279 -67 0
279 -265 -67 0
292 -217 -69 0
217 -292 -69 0
249 -292 -71 0
292 -249 -71 0
280 -215 -73 0
215 -280 -73 0
249 -292 -75 0
292 -249 -75 0
292 -217 -77 0
217 -292 -77 0
252 -241 -79 0
241 -252 -79 0
259 -281 -81 0
281 -259 -81 0
260 -274 -83 0
274 -260 -83 0
220 -287 -85 0
287 -220 -85 0
279 -294 -87 0
294 -279 -87 0
230 -231 -89 0
231 -230 -89 0
230 -245 -91 0
245 -230 -91 0
223 -258 -93 0
258 -223 -93 0
229 -240 -95 0
240 -229 -95 0
246 -273 -97 0
273 -246 -97 0
277 -279 -99 0
279 -277 -99 0
280 -272 -101 0
272 -280 -101 0
271 -236 -103 0
236 -271 -103 0
276 -230 -105 0
230 -276 -105 0
240 -215 -107 0
215 -240 -107 0
224 -274 -109 0
274 -224 -109 0
229 -215 -111 0
215 -229 -111 0
291 -269 -113 0
269 -291 -113 0
227 -289 -115 0
289 -227 -115 0
243 -234 -117 0
234 -243 -117 0
295 -296 -119 0
296 -295 -119 0
250 -273 -121 0
273 -250 -121 0
288 -250 -123 0
250 -288 -123 0
218 -261 -125 0
261 -218 -125 0
284 -221 -127 0
221 -284 -127 0
277 -279 -129 0
279 -277 -129 0
280 -215 -131 0
215 -280 -131 0
268 -281 -133 0
281 -268 -133 0
258 -223 -135 0
223 -258 -135 0
237 -269 -137 0
269 -237 -137 0
237 -238 -139 0
238 -237 -139 0
227 -221 -141 0
221 -227 -141 0
249 -283 -143 0
283 -249 -143 0
233 -256 -145 0
256 -233 -145 0
283 -263 -147 0
263 -283 -147 0
291 -286 -149 0
286 -291 -149 0
276 -218 -151 0
218 -276 -151 0
257 -243 -153 0
243 -257 -153 0
257 -231 -155 0
231 -257 -155 0
262 -247 -157 0
247 -262 -157 0
272 -235 -159 0
235 -272 -159 0
291 -269 -161 0
269 -291 -161 0
259 -229 -163 0
229 -259 -163 0
280 -215 -165 0
215 -280 -165 0
265 -266 -167 0
266 -265 -167 0
270 -287 -169 0
287 -270 -169 0
282 -289 -171 0
289 -282 -171 0
280 -215 -173 0
215 -280 -173 0
220 -226 -175 0
226 -220 -175 0
249 -292 -177 0
292 -249 -177 0
277 -279 -179 0
279 -277 -179 0
274 -236 -181 0
236 -274 -181 0
227 -253 -183 0
253 -227 -183 0
262 -224 -185 0
224 -262 -185 0
288 -248 -187 0
248 -288 -187 0
242 -282 -189 0
282 -242 -189 0
240 -215 -191 0
215 -240 -191 0
280 -229 -193 0
229 -280 -193 0
278 -266 -195 0
266 -278 -195 0
275 -217 -197 0
217 -275 -197 0
259 -225 -199 0
225 -259 -199 0
290 -241 -201 0
241 -290 -201 0
277 -279 -203 0
279 -277 -203 0
277 -279 -205 0
279 -277 -205 0
254 -232 -207 0
232 -254 -207 0
235 -278 -209 0
278 -235 -209 0
272 -266 -211 0
266 -272 -211 0
283 -267 -213 0
267 -283 -213 0

